data/solutions/planning/wellformed/moderate/weighting/wellformed_moderate_instance2_cplex.sol
Elapsed time: 0.18
Nodes explored: 2237
Nodes left: 0
Relative gap: 0.0
Upper bound: 5236.0
Lower bound: 5236
C[0]=748.0
C[1]=748.0
C[2]=748.0
y[0]=0
y[1]=1
y[2]=1
y[3]=2
y[4]=1
y[5]=2
y[6]=2
y[7]=0
y[8]=1
y[9]=1
y[10]=0
y[11]=2
y[12]=1
y[13]=0
y[14]=0
y[15]=2
y[16]=2
y[17]=1
y[18]=0
y[19]=0
